max: +x11+x12+x13+x14+x21+x22+x23+x24+x31+x32+x33+x34+x41+x42+x43+x44;
+x23+x32-3x11 >= 0;
+x31+x24+x33-3x12 >= 0;
+x32+x21+x34-3x13 >= 0;
+x33+x22-3x14 >= 0;
+x13+x33+x42-3x21 >= 0;
+x14+x41+x34+x43-3x22 >= 0;
+x11+x42+x31+x44-3x23 >= 0;
+x12+x43+x32-3x24 >= 0;
+x23+x12+x43-3x31 >= 0;
+x11+x24+x13+x44-3x32 >= 0;
+x21+x12+x41+x14-3x33 >= 0;
+x22+x13+x42-3x34 >= 0;
+x33+x22-3x41 >= 0;
+x21+x34+x23-3x42 >= 0;
+x31+x22+x24-3x43 >= 0;
+x32+x23-3x44 >= 0;
+x23+x32+5x11 <= 8;
+x31+x24+x33+5x12 <= 8;
+x32+x21+x34+5x13 <= 8;
+x33+x22+5x14 <= 8;
+x13+x33+x42+5x21 <= 8;
+x14+x41+x34+x43+5x22 <= 8;
+x11+x42+x31+x44+5x23 <= 8;
+x12+x43+x32+5x24 <= 8;
+x23+x12+x43+5x31 <= 8;
+x11+x24+x13+x44+5x32 <= 8;
+x21+x12+x41+x14+5x33 <= 8;
+x22+x13+x42+5x34 <= 8;
+x33+x22+5x41 <= 8;
+x21+x34+x23+5x42 <= 8;
+x31+x22+x24+5x43 <= 8;
+x32+x23+5x44 <= 8;
bin x11,x12,x13,x14,x21,x22,x23,x24,x31,x32,x33,x34,x41,x42,x43,x44;